nServices=10;
nDrivers=10;
nBuses=10;
startTime=[2 182 18 67 194 111 141 47 53 26];
durationTime=[10 24 30 24 19 23 23 19 22 22];
durationDist=[48 40 53 32 53 22 33 35 54 30];
passangers=[9 17 8 15 6 24 24 21 8 22];
capacity=[11 28 29 19 22 27 23 21 10 10];
costTime=[10 7 8 7 8 8 9 7 8 9];
costDist=[5 5 2 3 6 5 4 6 3 4];
maxTime=[56 26 22 48 37 47 27 46 59 53];
costBM=[7 5 8 7 8 7 7 8 6 8];
costEM=[12 9 12 12 12 9 9 11 11 12];
BM=[16 12 20 18 19 20 14 15 13 17];
